c This is UnifRandomKSATGenerator
c uniform random 3-SAT generated instance with: 
c clause length: 3 
c number variables: 10 
c number clauses: 43 
c clause to variable ratio: 4.27 
c random number generator name: SHA1PRNG 
c random number generator provider: SUN 
c random number generator seed: 8452227513450049155 
p cnf 10 43
-1 3 6 0
1 10 -6 0
5 -7 -8 0
1 9 -4 0
-1 9 3 0
-9 10 -5 0
2 3 -8 0
1 -2 -10 0
-10 2 6 0
-4 -6 -8 0
-1 -9 -4 0
10 6 -8 0
2 -8 7 0
8 -10 -2 0
3 4 6 0
-9 6 -8 0
10 -6 -8 0
-1 -10 2 0
-9 5 7 0
-3 -5 -8 0
-9 -4 -7 0
-10 2 -5 0
8 -4 7 0
9 -3 10 0
-9 -10 3 0
-1 -4 6 0
9 2 7 0
-3 -5 6 0
8 4 7 0
3 5 7 0
-5 -6 7 0
4 6 -8 0
-9 -3 -6 0
-10 -4 -8 0
1 -10 -8 0
-9 5 -6 0
8 9 4 0
-2 -3 7 0
-1 -10 -3 0
3 6 -7 0
2 -3 -8 0
-9 10 3 0
10 -5 7 0
